cvc5/30902.corecstrs.readable_medium.smt2
(set-info :smt-lib-version 2.6)
(set-logic QF_SLIA)
(set-info :source |
Generated by: Andrew Reynolds
Generated on: 2018-04-25
Generator: Kudzu, converted to v2.6 by CVC4
Application: Symbolic Execution of Javascript
Target solver: Kaluza
Publications: "A symbolic execution framework for JavaScript" by P. Saxena, D. Akhawe, S. Hanna, F. Mao, S. McCamant, and D. Song, 2010.
|)
(set-info :license "https://creativecommons.org/licenses/by/4.0/")
(set-info :category "industrial")
(set-info :status unknown)



(declare-fun T_1 () Int)
(declare-fun T_2 () Bool)
(declare-fun var_0xINPUT_440920 () String)
(declare-const rest_0_1429 String)
(declare-const rest_1_5242 String)
(declare-const rest_2_4192 String)
(declare-const rest_3_5371 String)
(assert (= T_1 (str.len var_0xINPUT_440920)))
(assert (= T_2 (= T_1 0)))
(assert T_2)
(assert (= (str.split_rest var_0xINPUT_440920 "," 0) rest_0_1429))
(assert (= (str.split_rest var_0xINPUT_440920 "," 2) rest_1_5242))
(assert (= (str.split_rest var_0xINPUT_440920 "," 3) rest_2_4192))
(assert (= (str.split_rest var_0xINPUT_440920 "," 3) rest_3_5371))
(assert (= (str.split_rest var_0xINPUT_440920 "," 3) "9ibq00svgi4d1"))
(check-sat)

(exit)
(get-model)
